50

100 3 260
96 7 544
93 6 250
90 2 563
88 16 539
88 4 402
86 22 436
85 1 436
84 25 683
84 21 702
83 11 349
83 15 352
80 18 244
80 12 630
79 18 343
77 12 386
77 13 494
74 6 606
70 5 696
68 4 420
67 7 517
64 9 696
61 3 667
61 15 636
58 17 724
58 1 343
58 1 563
56 9 634
54 5 547
54 10 420
53 8 435
51 7 255
49 7 706
48 10 389
47 9 688
45 10 496
45 9 256
44 1 584
43 3 582
41 1 352
41 12 638
40 11 318
40 1 668
37 11 374
36 1 357
34 1 445
34 3 670
33 9 278
33 1 281
31 3 738
